5

0   18   20   11   14
18   0   15   25   6
20   15   0   1   18
11   25   1   0   17
14   6   18   17  0

0   37   31   46   56
37   0   26   9   23
31   26   0   31   49
46   9   31   0   18
56   23   49   18   0